c instance by G2
c solution = 1100100011011
c Known solution cost is 544 
p cnf 13 30
w 90 6 17 53 19 20 71 64 54 56 40 32 22
-6 9 -3 0
-9 3 -11 0
-9 -4 -10 0
4 3 -8 0
-13 1 11 0
-7 2 8 0
-7 -11 2 0
-13 8 -7 0
3 -5 1 0
3 -11 -2 0
2 6 11 0
-6 -12 13 0
-5 -2 9 0
5 4 -9 0
-6 -10 11 0
-1 6 5 0
1 -11 2 0
10 -6 9 0
-11 3 -1 0
4 -1 12 0
-1 -10 -11 0
3 -13 10 0
8 2 -5 0
-10 -7 13 0
-3 7 6 0
6 -13 -4 0
4 11 13 0
1 -12 -6 0
-8 10 -4 0
7 9 3 0
